;symbolic execution tree
(push)
(assert (le x0 java.lang.Object))
(check-sat)
(push)
(assert (le x1 java.lang.Object))
(check-sat)
(push)
(assert (le x2 java.lang.Object))
(check-sat)
(push)
(assert (le x3 java.lang.Object))
(check-sat)
(push)
(assert (le x4 java.lang.Object))
(check-sat)
(push)
(assert (le x5 java.lang.Object))
(check-sat)
(push)
(assert (le x6 java.lang.Object))
(check-sat)
(push)
(assert (le x7 java.lang.Object))
(check-sat)
(push)
(assert (= x1 java.lang.String))
(check-sat)
(push)
(assert (le x0 net.n3.nanoxml.XMLElement))
(check-sat)
(push)
(assert (le x2 java.util.Properties))
(check-sat)
(pop)
(push)
(assert (not (le x2 java.util.Properties)))
(check-sat)
(pop)
(push)
(assert (= x4 java.lang.StringBuffer))
(check-sat)
(pop)
(push)
(assert (not (= x4 java.lang.StringBuffer)))
(check-sat)
(pop)
(push)
(assert (= x1 java.lang.String))
(check-sat)
(push)
(assert (= x6 java.lang.StringBuilder))
(check-sat)
(pop)
(push)
(assert (not (= x6 java.lang.StringBuilder)))
(check-sat)
(pop)
(push)
(assert (= x5 java.lang.String))
(check-sat)
(push)
(assert (= x2 java.lang.String))
(check-sat)
(pop)
(push)
(assert (not (= x2 java.lang.String)))
(check-sat)
(pop)
(pop)
(push)
(assert (not (= x5 java.lang.String)))
(check-sat)
(pop)
(pop)
(push)
(assert (not (= x1 java.lang.String)))
(check-sat)
(pop)
(pop)
(push)
(assert (not (le x0 net.n3.nanoxml.XMLElement)))
(check-sat)
(push)
(assert (= x3 java.lang.String))
(check-sat)
(push)
(assert (= x6 java.lang.StringBuilder))
(check-sat)
(pop)
(push)
(assert (not (= x6 java.lang.StringBuilder)))
(check-sat)
(pop)
(pop)
(push)
(assert (not (= x3 java.lang.String)))
(check-sat)
(pop)
(push)
(assert (= x1 java.lang.String))
(check-sat)
(pop)
(push)
(assert (not (= x1 java.lang.String)))
(check-sat)
(pop)
(pop)
(push)
(assert (= x3 java.lang.String))
(check-sat)
(push)
(assert (= x1 java.lang.String))
(check-sat)
(push)
(assert (= x4 java.lang.StringBuffer))
(check-sat)
(push)
(assert (le x0 java.util.Vector))
(check-sat)
(pop)
(push)
(assert (not (le x0 java.util.Vector)))
(check-sat)
(pop)
(pop)
(push)
(assert (not (= x4 java.lang.StringBuffer)))
(check-sat)
(pop)
(pop)
(push)
(assert (not (= x1 java.lang.String)))
(check-sat)
(pop)
(push)
(assert (= x1 java.lang.String))
(check-sat)
(pop)
(push)
(assert (not (= x1 java.lang.String)))
(check-sat)
(pop)
(pop)
(push)
(assert (not (= x3 java.lang.String)))
(check-sat)
(push)
(assert (= x0 java.lang.String))
(check-sat)
(pop)
(push)
(assert (not (= x0 java.lang.String)))
(check-sat)
(push)
(assert (le x5 net.n3.nanoxml.XMLElement))
(check-sat)
(pop)
(push)
(assert (not (le x5 net.n3.nanoxml.XMLElement)))
(check-sat)
(pop)
(push)
(assert (= x0 java.lang.String))
(check-sat)
(pop)
(push)
(assert (not (= x0 java.lang.String)))
(check-sat)
(push)
(assert (= x1 java.lang.String))
(check-sat)
(pop)
(push)
(assert (not (= x1 java.lang.String)))
(check-sat)
(pop)
(push)
(assert (= x1 java.lang.String))
(check-sat)
(pop)
(push)
(assert (not (= x1 java.lang.String)))
(check-sat)
(pop)
(push)
(assert (= x7 java.lang.StringBuffer))
(check-sat)
(pop)
(push)
(assert (not (= x7 java.lang.StringBuffer)))
(check-sat)
(pop)
(pop)
(push)
(assert (le x6 net.n3.nanoxml.XMLElement))
(check-sat)
(pop)
(push)
(assert (not (le x6 net.n3.nanoxml.XMLElement)))
(check-sat)
(pop)
(push)
(assert (le x6 net.n3.nanoxml.XMLElement))
(check-sat)
(pop)
(push)
(assert (not (le x6 net.n3.nanoxml.XMLElement)))
(check-sat)
(pop)
(push)
(assert (= x7 java.lang.StringBuffer))
(check-sat)
(pop)
(push)
(assert (not (= x7 java.lang.StringBuffer)))
(check-sat)
(pop)
(push)
(assert (= x1 java.lang.String))
(check-sat)
(pop)
(push)
(assert (not (= x1 java.lang.String)))
(check-sat)
(pop)
(pop)
(push)
(assert (le x4 net.n3.nanoxml.XMLElement))
(check-sat)
(push)
(assert (le x6 net.n3.nanoxml.XMLElement))
(check-sat)
(pop)
(push)
(assert (not (le x6 net.n3.nanoxml.XMLElement)))
(check-sat)
(pop)
(pop)
(push)
(assert (not (le x4 net.n3.nanoxml.XMLElement)))
(check-sat)
(pop)
(pop)
(push)
(assert (le x4 java.util.Vector))
(check-sat)
(push)
(assert (le x3 java.util.Hashtable))
(check-sat)
(push)
(assert (le x3 java.util.Hashtable))
(check-sat)
(pop)
(push)
(assert (not (le x3 java.util.Hashtable)))
(check-sat)
(pop)
(pop)
(push)
(assert (not (le x3 java.util.Hashtable)))
(check-sat)
(push)
(assert (= x7 java.lang.String))
(check-sat)
(push)
(assert (le x5 java.util.Properties))
(check-sat)
(pop)
(push)
(assert (not (le x5 java.util.Properties)))
(check-sat)
(pop)
(pop)
(push)
(assert (not (= x7 java.lang.String)))
(check-sat)
(pop)
(pop)
(push)
(assert (le x5 net.n3.nanoxml.XMLElement))
(check-sat)
(pop)
(push)
(assert (not (le x5 net.n3.nanoxml.XMLElement)))
(check-sat)
(pop)
(push)
(assert (le x4 java.util.Vector))
(check-sat)
(pop)
(push)
(assert (not (le x4 java.util.Vector)))
(check-sat)
(pop)
(push)
(assert (= x1 java.lang.String))
(check-sat)
(pop)
(push)
(assert (not (= x1 java.lang.String)))
(check-sat)
(pop)
(push)
(assert (le x5 java.util.Hashtable))
(check-sat)
(pop)
(push)
(assert (not (le x5 java.util.Hashtable)))
(check-sat)
(pop)
(push)
(assert (= x7 java.lang.StringBuilder))
(check-sat)
(pop)
(push)
(assert (not (= x7 java.lang.StringBuilder)))
(check-sat)
(pop)
(push)
(assert (le x4 java.util.Vector))
(check-sat)
(pop)
(push)
(assert (not (le x4 java.util.Vector)))
(check-sat)
(pop)
(push)
(assert (le x2 net.n3.nanoxml.XMLElement))
(check-sat)
(push)
(assert (= x0 java.lang.String))
(check-sat)
(push)
(assert (= x6 java.lang.String))
(check-sat)
(pop)
(push)
(assert (not (= x6 java.lang.String)))
(check-sat)
(pop)
(pop)
(push)
(assert (not (= x0 java.lang.String)))
(check-sat)
(push)
(assert (= x1 java.lang.String))
(check-sat)
(pop)
(push)
(assert (not (= x1 java.lang.String)))
(check-sat)
(pop)
(pop)
(push)
(assert (le x7 net.n3.nanoxml.XMLElement))
(check-sat)
(push)
(assert (= x5 java.lang.String))
(check-sat)
(pop)
(push)
(assert (not (= x5 java.lang.String)))
(check-sat)
(pop)
(pop)
(push)
(assert (not (le x7 net.n3.nanoxml.XMLElement)))
(check-sat)
(pop)
(pop)
(push)
(assert (not (le x2 net.n3.nanoxml.XMLElement)))
(check-sat)
(pop)
(push)
(assert (le x2 java.io.Reader))
(check-sat)
(push)
(assert (le x6 java.util.Vector))
(check-sat)
(pop)
(push)
(assert (not (le x6 java.util.Vector)))
(check-sat)
(pop)
(pop)
(push)
(assert (not (le x2 java.io.Reader)))
(check-sat)
(pop)
(push)
(assert (= x5 java.lang.String))
(check-sat)
(push)
(assert (le x0 java.util.Vector))
(check-sat)
(pop)
(push)
(assert (not (le x0 java.util.Vector)))
(check-sat)
(pop)
(push)
(assert (le x3 java.util.Vector))
(check-sat)
(pop)
(push)
(assert (not (le x3 java.util.Vector)))
(check-sat)
(pop)
(pop)
(push)
(assert (not (= x5 java.lang.String)))
(check-sat)
(pop)
(pop)
(push)
(assert (not (le x4 java.util.Vector)))
(check-sat)
(pop)
(push)
(assert (le x5 net.n3.nanoxml.XMLElement))
(check-sat)
(push)
(assert (le x2 java.util.Properties))
(check-sat)
(push)
(assert (= x7 java.lang.String))
(check-sat)
(pop)
(push)
(assert (not (= x7 java.lang.String)))
(check-sat)
(pop)
(pop)
(push)
(assert (not (le x2 java.util.Properties)))
(check-sat)
(push)
(assert (= x6 java.lang.String))
(check-sat)
(pop)
(push)
(assert (not (= x6 java.lang.String)))
(check-sat)
(pop)
(push)
(assert (le x7 net.n3.nanoxml.XMLElement))
(check-sat)
(pop)
(push)
(assert (not (le x7 net.n3.nanoxml.XMLElement)))
(check-sat)
(pop)
(push)
(assert (= x4 java.lang.String))
(check-sat)
(pop)
(push)
(assert (not (= x4 java.lang.String)))
(check-sat)
(pop)
(push)
(assert (= x1 java.lang.String))
(check-sat)
(pop)
(push)
(assert (not (= x1 java.lang.String)))
(check-sat)
(pop)
(pop)
(pop)
(push)
(assert (not (le x5 net.n3.nanoxml.XMLElement)))
(check-sat)
(push)
(assert (= x0 java.lang.StringBuffer))
(check-sat)
(push)
(assert (= x0 java.lang.StringBuffer))
(check-sat)
(pop)
(push)
(assert (not (= x0 java.lang.StringBuffer)))
(check-sat)
(pop)
(pop)
(push)
(assert (not (= x0 java.lang.StringBuffer)))
(check-sat)
(pop)
(push)
(assert (= x6 java.lang.StringBuffer))
(check-sat)
(pop)
(push)
(assert (not (= x6 java.lang.StringBuffer)))
(check-sat)
(pop)
(pop)
(push)
(assert (le x2 net.sourceforge.jxml2sql.database.DatabaseField))
(check-sat)
(pop)
(push)
(assert (not (le x2 net.sourceforge.jxml2sql.database.DatabaseField)))
(check-sat)
(pop)
(push)
(assert (le x5 net.n3.nanoxml.XMLElement))
(check-sat)
(pop)
(push)
(assert (not (le x5 net.n3.nanoxml.XMLElement)))
(check-sat)
(push)
(assert (le x4 net.n3.nanoxml.XMLElement))
(check-sat)
(push)
(assert (le x6 java.util.Properties))
(check-sat)
(pop)
(push)
(assert (not (le x6 java.util.Properties)))
(check-sat)
(pop)
(pop)
(push)
(assert (not (le x4 net.n3.nanoxml.XMLElement)))
(check-sat)
(push)
(assert (le x6 net.sourceforge.jxml2sql.database.DatabaseTable))
(check-sat)
(pop)
(push)
(assert (not (le x6 net.sourceforge.jxml2sql.database.DatabaseTable)))
(check-sat)
(pop)
(pop)
(push)
(assert (le x2 java.util.Properties))
(check-sat)
(pop)
(push)
(assert (not (le x2 java.util.Properties)))
(check-sat)
(pop)
(push)
(assert (= x7 java.lang.StringBuffer))
(check-sat)
(pop)
(push)
(assert (not (= x7 java.lang.StringBuffer)))
(check-sat)
(push)
(assert (= x7 java.lang.StringBuffer))
(check-sat)
(pop)
(push)
(assert (not (= x7 java.lang.StringBuffer)))
(check-sat)
(pop)
(push)
(assert (le x6 net.sourceforge.jxml2sql.database.DatabaseElement))
(check-sat)
(push)
(assert (= x1 java.lang.String))
(check-sat)
(pop)
(push)
(assert (not (= x1 java.lang.String)))
(check-sat)
(pop)
(pop)
(push)
(assert (not (le x6 net.sourceforge.jxml2sql.database.DatabaseElement)))
(check-sat)
(pop)
(pop)
(push)
(assert (le x2 net.n3.nanoxml.XMLElement))
(check-sat)
(push)
(assert (le x0 net.n3.nanoxml.XMLElement))
(check-sat)
(pop)
(push)
(assert (not (le x0 net.n3.nanoxml.XMLElement)))
(check-sat)
(push)
(assert (le x3 java.util.Vector))
(check-sat)
(pop)
(push)
(assert (not (le x3 java.util.Vector)))
(check-sat)
(pop)
(pop)
(pop)
(push)
(assert (not (le x2 net.n3.nanoxml.XMLElement)))
(check-sat)
(push)
(assert (le x6 java.util.Vector))
(check-sat)
(pop)
(push)
(assert (not (le x6 java.util.Vector)))
(check-sat)
(pop)
(push)
(assert (= x0 java.lang.StringBuffer))
(check-sat)
(pop)
(push)
(assert (not (= x0 java.lang.StringBuffer)))
(check-sat)
(pop)
(pop)
(pop)
(push)
(assert (le x4 net.sourceforge.jxml2sql.database.DatabaseTable))
(check-sat)
(push)
(assert (= x1 java.lang.String))
(check-sat)
(pop)
(push)
(assert (not (= x1 java.lang.String)))
(check-sat)
(pop)
(push)
(assert (le x0 java.util.Vector))
(check-sat)
(pop)
(push)
(assert (not (le x0 java.util.Vector)))
(check-sat)
(pop)
(push)
(assert (= x3 java.lang.String))
(check-sat)
(pop)
(push)
(assert (not (= x3 java.lang.String)))
(check-sat)
(pop)
(push)
(assert (le x4 net.sourceforge.jxml2sql.database.DatabaseElement))
(check-sat)
(pop)
(push)
(assert (not (le x4 net.sourceforge.jxml2sql.database.DatabaseElement)))
(check-sat)
(pop)
(push)
(assert (= x0 java.lang.String))
(check-sat)
(pop)
(push)
(assert (not (= x0 java.lang.String)))
(check-sat)
(push)
(assert (le x3 java.util.Vector))
(check-sat)
(pop)
(push)
(assert (not (le x3 java.util.Vector)))
(check-sat)
(push)
(assert (= x2 java.lang.String))
(check-sat)
(pop)
(push)
(assert (not (= x2 java.lang.String)))
(check-sat)
(pop)
(pop)
(push)
(assert (= x0 java.lang.String))
(check-sat)
(pop)
(push)
(assert (not (= x0 java.lang.String)))
(check-sat)
(pop)
(pop)
(pop)
(push)
(assert (not (le x4 net.sourceforge.jxml2sql.database.DatabaseTable)))
(check-sat)
(push)
(assert (le x6 net.n3.nanoxml.XMLElement))
(check-sat)
(pop)
(push)
(assert (not (le x6 net.n3.nanoxml.XMLElement)))
(check-sat)
(pop)
(pop)
(push)
(assert (= x3 java.lang.StringBuffer))
(check-sat)
(pop)
(push)
(assert (not (= x3 java.lang.StringBuffer)))
(check-sat)
(pop)
(push)
(assert (= x1 java.lang.String))
(check-sat)
(push)
(assert (= x6 java.lang.StringBuffer))
(check-sat)
(push)
(assert (= x0 java.lang.String))
(check-sat)
(pop)
(push)
(assert (not (= x0 java.lang.String)))
(check-sat)
(pop)
(push)
(assert (le x0 net.n3.nanoxml.XMLElement))
(check-sat)
(pop)
(push)
(assert (not (le x0 net.n3.nanoxml.XMLElement)))
(check-sat)
(pop)
(push)
(assert (= x5 java.lang.String))
(check-sat)
(pop)
(push)
(assert (not (= x5 java.lang.String)))
(check-sat)
(pop)
(pop)
(push)
(assert (not (= x6 java.lang.StringBuffer)))
(check-sat)
(push)
(assert (= x6 java.lang.StringBuffer))
(check-sat)
(pop)
(push)
(assert (not (= x6 java.lang.StringBuffer)))
(check-sat)
(pop)
(push)
(assert (= x4 java.lang.String))
(check-sat)
(pop)
(push)
(assert (not (= x4 java.lang.String)))
(check-sat)
(push)
(assert (= x6 java.lang.StringBuffer))
(check-sat)
(pop)
(push)
(assert (not (= x6 java.lang.StringBuffer)))
(check-sat)
(pop)
(pop)
(push)
(assert (= x1 java.lang.String))
(check-sat)
(pop)
(push)
(assert (not (= x1 java.lang.String)))
(check-sat)
(pop)
(pop)
(push)
(assert (= x6 java.lang.StringBuilder))
(check-sat)
(pop)
(push)
(assert (not (= x6 java.lang.StringBuilder)))
(check-sat)
(pop)
(pop)
(push)
(assert (not (= x1 java.lang.String)))
(check-sat)
(pop)
(push)
(assert (le x2 net.n3.nanoxml.XMLElement))
(check-sat)
(pop)
(push)
(assert (not (le x2 net.n3.nanoxml.XMLElement)))
(check-sat)
(push)
(assert (= x5 java.lang.String))
(check-sat)
(push)
(assert (= x7 java.lang.String))
(check-sat)
(pop)
(push)
(assert (not (= x7 java.lang.String)))
(check-sat)
(pop)
(pop)
(push)
(assert (not (= x5 java.lang.String)))
(check-sat)
(push)
(assert (le x4 net.sourceforge.jxml2sql.database.DatabaseElement))
(check-sat)
(push)
(assert (= x3 java.lang.StringBuffer))
(check-sat)
(pop)
(push)
(assert (not (= x3 java.lang.StringBuffer)))
(check-sat)
(pop)
(pop)
(push)
(assert (not (le x4 net.sourceforge.jxml2sql.database.DatabaseElement)))
(check-sat)
(pop)
(pop)
(push)
(assert (= x7 java.lang.StringBuffer))
(check-sat)
(push)
(assert (le x6 net.n3.nanoxml.IXMLReader))
(check-sat)
(pop)
(push)
(assert (not (le x6 net.n3.nanoxml.IXMLReader)))
(check-sat)
(pop)
(push)
(assert (le x0 net.n3.nanoxml.XMLElement))
(check-sat)
(push)
(assert (le x3 net.sourceforge.jxml2sql.database.Database))
(check-sat)
(pop)
(push)
(assert (not (le x3 net.sourceforge.jxml2sql.database.Database)))
(check-sat)
(pop)
(pop)
(push)
(assert (not (le x0 net.n3.nanoxml.XMLElement)))
(check-sat)
(pop)
(push)
(assert (= x5 java.lang.String))
(check-sat)
(pop)
(push)
(assert (not (= x5 java.lang.String)))
(check-sat)
(push)
(assert (= x0 java.lang.StringBuffer))
(check-sat)
(pop)
(push)
(assert (not (= x0 java.lang.StringBuffer)))
(check-sat)
(pop)
(pop)
(pop)
(push)
(assert (not (= x7 java.lang.StringBuffer)))
(check-sat)
(pop)
(push)
(assert (= x1 java.lang.String))
(check-sat)
(push)
(assert (= x3 java.lang.String))
(check-sat)
(pop)
(push)
(assert (not (= x3 java.lang.String)))
(check-sat)
(push)
(assert (= x6 java.lang.String))
(check-sat)
(pop)
(push)
(assert (not (= x6 java.lang.String)))
(check-sat)
(pop)
(pop)
(push)
(assert (= x3 java.lang.String))
(check-sat)
(pop)
(push)
(assert (not (= x3 java.lang.String)))
(check-sat)
(pop)
(pop)
(push)
(assert (not (= x1 java.lang.String)))
(check-sat)
(pop)
(push)
(assert (le x5 java.io.Reader))
(check-sat)
(push)
(assert (= x0 java.lang.StringBuffer))
(check-sat)
(pop)
(push)
(assert (not (= x0 java.lang.StringBuffer)))
(check-sat)
(pop)
(push)
(assert (le x6 net.n3.nanoxml.XMLElement))
(check-sat)
(pop)
(push)
(assert (not (le x6 net.n3.nanoxml.XMLElement)))
(check-sat)
(pop)
(pop)
(push)
(assert (not (le x5 java.io.Reader)))
(check-sat)
(pop)
(push)
(assert (le x6 net.n3.nanoxml.XMLElement))
(check-sat)
(push)
(assert (le x5 net.sourceforge.jxml2sql.database.DatabaseTable))
(check-sat)
(pop)
(push)
(assert (not (le x5 net.sourceforge.jxml2sql.database.DatabaseTable)))
(check-sat)
(pop)
(push)
(assert (= x4 java.lang.StringBuffer))
(check-sat)
(pop)
(push)
(assert (not (= x4 java.lang.StringBuffer)))
(check-sat)
(pop)
(pop)
(push)
(assert (not (le x6 net.n3.nanoxml.XMLElement)))
(check-sat)
(push)
(assert (le x5 java.util.Properties))
(check-sat)
(push)
(assert (le x3 java.util.Properties))
(check-sat)
(pop)
(push)
(assert (not (le x3 java.util.Properties)))
(check-sat)
(pop)
(pop)
(push)
(assert (not (le x5 java.util.Properties)))
(check-sat)
(push)
(assert (= x1 java.lang.String))
(check-sat)
(pop)
(push)
(assert (not (= x1 java.lang.String)))
(check-sat)
(pop)
(pop)
(pop)
(push)
(assert (= x4 java.lang.String))
(check-sat)
(push)
(assert (= x3 java.lang.String))
(check-sat)
(push)
(assert (le x0 net.n3.nanoxml.XMLElement))
(check-sat)
(pop)
(push)
(assert (not (le x0 net.n3.nanoxml.XMLElement)))
(check-sat)
(pop)
(pop)
(push)
(assert (not (= x3 java.lang.String)))
(check-sat)
(push)
(assert (le x6 net.n3.nanoxml.XMLElement))
(check-sat)
(pop)
(push)
(assert (not (le x6 net.n3.nanoxml.XMLElement)))
(check-sat)
(pop)
(pop)
(pop)
(push)
(assert (not (= x4 java.lang.String)))
(check-sat)
(push)
(assert (le x6 net.n3.nanoxml.XMLElement))
(check-sat)
(pop)
(push)
(assert (not (le x6 net.n3.nanoxml.XMLElement)))
(check-sat)
(pop)
(pop)
(pop)
(push)
(assert (= x5 java.lang.String))
(check-sat)
(push)
(assert (= x5 java.lang.String))
(check-sat)
(push)
(assert (= x1 java.lang.String))
(check-sat)
(pop)
(push)
(assert (not (= x1 java.lang.String)))
(check-sat)
(pop)
(pop)
(push)
(assert (not (= x5 java.lang.String)))
(check-sat)
(pop)
(pop)
(push)
(assert (not (= x5 java.lang.String)))
(check-sat)
(pop)
(push)
(assert (le x5 java.io.PushbackReader))
(check-sat)
(pop)
(push)
(assert (not (le x5 java.io.PushbackReader)))
(check-sat)
(push)
(assert (le x6 java.util.Vector))
(check-sat)
(pop)
(push)
(assert (not (le x6 java.util.Vector)))
(check-sat)
(pop)
(pop)
(pop)
(push)
(assert (not (= x1 java.lang.String)))
(check-sat)
(push)
(assert (= x2 java.lang.String))
(check-sat)
(push)
(assert (= x2 java.lang.String))
(check-sat)
(pop)
(push)
(assert (not (= x2 java.lang.String)))
(check-sat)
(pop)
(pop)
(push)
(assert (not (= x2 java.lang.String)))
(check-sat)
(pop)
(pop)
